NAME : dja1436
COMMENT : Bonn VLSI data set with 1436 points
COMMENT : Uni Bonn, Research Institute for Discrete Math
COMMENT : Contributed by Andre Rohe
TYPE : TSP
DIMENSION : 1436
EDGE_WEIGHT_TYPE : EUC_2D
NODE_COORD_SECTION
1 0 22
2 0 40
3 0 79
4 2 100
5 2 102
6 2 106
7 2 108
8 2 110
9 2 114
10 2 121
11 2 31
12 2 32
13 2 42
14 2 43
15 2 45
16 2 57
17 2 58
18 2 59
19 2 60
20 2 84
21 2 91
22 2 93
23 2 95
24 2 97
25 3 46
26 5 100
27 5 102
28 5 104
29 5 106
30 5 108
31 5 110
32 5 112
33 5 126
34 5 129
35 5 133
36 5 8
37 5 92
38 5 96
39 9 76
40 9 90
41 10 101
42 10 105
43 10 83
44 10 90
45 11 10
46 11 101
47 11 105
48 11 124
49 11 127
50 11 76
51 11 83
52 11 90
53 12 5
54 15 102
55 15 104
56 15 106
57 15 108
58 15 110
59 15 112
60 15 8
61 16 84
62 17 114
63 17 31
64 17 57
65 17 59
66 18 121
67 18 30
68 18 41
69 18 47
70 18 60
71 25 101
72 25 103
73 25 116
74 25 117
75 25 123
76 25 125
77 25 131
78 25 31
79 25 32
80 25 38
81 25 39
82 25 45
83 25 46
84 25 53
85 25 55
86 25 63
87 25 69
88 25 70
89 25 71
90 25 72
91 25 75
92 25 77
93 25 79
94 25 81
95 25 83
96 25 85
97 25 87
98 25 89
99 25 91
100 25 93
101 25 95
102 25 97
103 25 99
104 26 118
105 28 100
106 28 104
107 28 122
108 28 58
109 28 6
110 28 76
111 28 8
112 28 80
113 28 84
114 28 88
115 28 92
116 28 96
117 31 123
118 32 123
119 32 62
120 32 74
121 33 103
122 33 124
123 33 74
124 34 10
125 34 103
126 34 105
127 34 120
128 34 123
129 34 49
130 34 5
131 34 57
132 34 74
133 38 104
134 38 125
135 38 58
136 38 6
137 38 8
138 40 31
139 40 39
140 40 45
141 40 63
142 40 72
143 41 115
144 41 118
145 41 131
146 41 30
147 41 38
148 41 46
149 41 69
150 41 71
151 48 105
152 48 106
153 48 109
154 48 115
155 48 118
156 48 123
157 48 125
158 48 130
159 48 132
160 48 18
161 48 52
162 48 53
163 48 54
164 48 55
165 48 59
166 48 65
167 48 71
168 48 73
169 48 76
170 48 77
171 48 80
172 48 86
173 48 87
174 48 88
175 48 89
176 48 92
177 48 94
178 49 60
179 51 10
180 51 103
181 51 113
182 51 115
183 51 117
184 51 119
185 51 121
186 51 125
187 51 13
188 51 15
189 51 72
190 51 76
191 51 78
192 51 8
193 51 92
194 51 94
195 51 96
196 51 99
197 55 123
198 55 70
199 55 79
200 56 114
201 56 118
202 56 123
203 56 70
204 56 77
205 56 91
206 57 111
207 57 114
208 57 118
209 57 12
210 57 120
211 57 123
212 57 126
213 57 24
214 57 31
215 57 70
216 57 77
217 57 9
218 57 91
219 57 97
220 58 5
221 61 10
222 61 115
223 61 117
224 61 119
225 61 121
226 61 13
227 61 15
228 61 78
229 61 8
230 61 92
231 61 94
232 61 96
233 63 106
234 63 109
235 63 18
236 63 52
237 63 54
238 63 61
239 63 65
240 63 80
241 63 89
242 64 51
243 64 53
244 64 62
245 64 66
246 64 86
247 64 88
248 71 101
249 71 102
250 71 116
251 71 132
252 71 18
253 71 19
254 71 23
255 71 24
256 71 27
257 71 28
258 71 29
259 71 34
260 71 36
261 71 45
262 71 46
263 71 49
264 71 55
265 71 57
266 71 58
267 71 71
268 71 72
269 71 76
270 71 77
271 71 80
272 71 81
273 71 82
274 71 87
275 71 89
276 72 21
277 72 74
278 74 107
279 74 11
280 74 112
281 74 15
282 74 63
283 74 69
284 74 7
285 74 94
286 74 98
287 77 104
288 78 11
289 78 15
290 78 38
291 78 8
292 78 91
293 78 94
294 78 98
295 79 13
296 79 9
297 79 92
298 79 96
299 80 122
300 80 38
301 80 5
302 81 60
303 84 10
304 84 107
305 84 112
306 84 14
307 84 63
308 84 69
309 84 93
310 84 97
311 86 101
312 86 116
313 86 18
314 86 24
315 86 27
316 86 34
317 86 36
318 86 46
319 86 52
320 86 56
321 86 71
322 86 77
323 86 80
324 86 87
325 86 89
326 87 132
327 87 22
328 87 28
329 87 44
330 87 53
331 87 57
332 87 75
333 87 81
334 94 100
335 94 101
336 94 103
337 94 104
338 94 120
339 94 123
340 94 134
341 94 21
342 94 23
343 94 68
344 94 71
345 94 72
346 94 76
347 94 77
348 94 80
349 94 81
350 94 82
351 94 87
352 94 89
353 94 92
354 94 98
355 94 99
356 95 74
357 97 11
358 97 124
359 97 126
360 97 129
361 97 131
362 97 140
363 97 15
364 97 26
365 97 29
366 97 31
367 97 37
368 97 45
369 97 59
370 97 63
371 97 65
372 97 68
373 97 7
374 101 11
375 101 15
376 101 8
377 101 91
378 102 123
379 102 13
380 102 67
381 102 9
382 103 110
383 103 123
384 103 125
385 103 128
386 103 17
387 103 25
388 103 28
389 103 46
390 103 5
391 103 57
392 103 62
393 103 67
394 104 33
395 107 10
396 107 124
397 107 126
398 107 129
399 107 131
400 107 14
401 107 26
402 107 29
403 107 31
404 107 63
405 107 65
406 107 68
407 109 101
408 109 104
409 109 134
410 109 71
411 109 77
412 109 80
413 109 87
414 109 89
415 109 92
416 110 100
417 110 120
418 110 75
419 110 81
420 110 98
421 117 111
422 117 115
423 117 117
424 117 119
425 117 12
426 117 132
427 117 134
428 117 30
429 117 52
430 120 120
431 120 123
432 120 127
433 120 34
434 120 47
435 120 49
436 120 52
437 120 55
438 120 58
439 120 60
440 120 64
441 120 66
442 120 68
443 120 73
444 120 79
445 120 8
446 125 10
447 125 119
448 125 51
449 126 10
450 126 109
451 126 119
452 126 121
453 126 128
454 126 32
455 126 35
456 126 46
457 126 51
458 126 54
459 126 57
460 126 63
461 126 65
462 127 124
463 127 5
464 127 70
465 130 120
466 130 127
467 130 47
468 130 49
469 130 52
470 130 55
471 130 58
472 130 60
473 130 64
474 130 66
475 130 68
476 130 73
477 130 79
478 130 8
479 132 111
480 132 115
481 132 117
482 132 30
483 140 10
484 140 11
485 140 116
486 140 117
487 140 126
488 140 133
489 140 36
490 140 42
491 140 47
492 140 56
493 140 6
494 140 61
495 140 68
496 140 73
497 140 74
498 140 75
499 140 76
500 141 118
501 143 103
502 143 121
503 143 123
504 143 15
505 143 19
506 143 21
507 143 24
508 143 26
509 143 30
510 143 72
511 143 79
512 143 81
513 143 84
514 143 88
515 143 91
516 143 95
517 143 99
518 146 39
519 146 53
520 147 103
521 147 96
522 147 99
523 148 101
524 148 46
525 148 97
526 149 105
527 149 120
528 149 13
529 149 20
530 149 23
531 149 28
532 149 35
533 149 46
534 149 71
535 149 78
536 149 83
537 149 87
538 149 89
539 150 16
540 150 92
541 153 102
542 153 121
543 153 123
544 153 19
545 153 21
546 153 24
547 153 26
548 153 72
549 153 79
550 153 81
551 153 84
552 153 88
553 153 95
554 153 98
555 154 47
556 155 11
557 155 126
558 155 6
559 155 61
560 155 74
561 155 75
562 155 76
563 156 115
564 156 118
565 156 133
566 156 36
567 156 68
568 163 10
569 163 102
570 163 103
571 163 104
572 163 116
573 163 123
574 163 15
575 163 16
576 163 20
577 163 21
578 163 24
579 163 25
580 163 26
581 163 31
582 163 33
583 163 36
584 163 37
585 163 41
586 163 42
587 163 46
588 163 47
589 163 52
590 163 66
591 163 68
592 163 70
593 163 72
594 163 96
595 163 99
596 164 18
597 164 39
598 166 100
599 166 11
600 166 111
601 166 113
602 166 128
603 166 131
604 166 135
605 166 6
606 166 61
607 166 63
608 166 67
609 166 71
610 166 77
611 166 81
612 166 85
613 166 90
614 166 94
615 166 96
616 166 98
617 169 82
618 170 101
619 170 65
620 171 10
621 171 54
622 171 65
623 171 95
624 171 99
625 172 10
626 172 105
627 172 110
628 172 126
629 172 129
630 172 5
631 172 60
632 172 65
633 172 80
634 172 93
635 172 95
636 172 99
637 173 74
638 174 0
639 176 100
640 176 11
641 176 111
642 176 113
643 176 6
644 176 61
645 176 63
646 176 77
647 176 81
648 176 85
649 176 90
650 176 94
651 176 96
652 176 98
653 178 0
654 178 116
655 178 15
656 178 21
657 178 24
658 178 31
659 178 33
660 178 36
661 178 42
662 178 52
663 179 0
664 179 123
665 179 19
666 179 25
667 179 40
668 179 46
669 180 0
670 186 101
671 186 103
672 186 105
673 186 11
674 186 113
675 186 120
676 186 124
677 186 21
678 186 22
679 186 32
680 186 34
681 186 71
682 186 73
683 186 76
684 186 89
685 186 95
686 186 99
687 187 90
688 189 100
689 189 104
690 189 109
691 189 124
692 189 126
693 189 128
694 189 131
695 189 133
696 189 27
697 189 40
698 189 45
699 189 50
700 189 53
701 189 57
702 189 6
703 189 63
704 189 69
705 189 72
706 189 76
707 192 37
708 193 70
709 193 98
710 194 10
711 194 123
712 194 70
713 194 98
714 195 10
715 195 107
716 195 123
717 195 127
718 195 130
719 195 28
720 195 48
721 195 5
722 195 51
723 195 70
724 195 77
725 195 94
726 195 98
727 196 24
728 196 60
729 199 124
730 199 126
731 199 128
732 199 131
733 199 133
734 199 27
735 199 40
736 199 45
737 199 6
738 199 63
739 199 69
740 201 113
741 201 22
742 202 120
743 202 90
744 202 95
745 209 101
746 209 12
747 209 132
748 209 14
749 209 17
750 209 18
751 209 21
752 209 22
753 209 25
754 209 31
755 209 33
756 209 34
757 209 37
758 209 38
759 209 40
760 209 43
761 209 45
762 209 58
763 209 59
764 209 63
765 209 64
766 209 68
767 209 69
768 209 74
769 209 82
770 209 83
771 209 88
772 209 94
773 209 95
774 209 96
775 209 97
776 210 61
777 212 41
778 212 50
779 212 56
780 212 7
781 212 86
782 216 16
783 216 87
784 217 40
785 217 76
786 217 99
787 218 122
788 218 16
789 218 40
790 218 5
791 218 8
792 218 85
793 218 99
794 219 47
795 222 41
796 222 50
797 222 56
798 222 86
799 224 19
800 224 22
801 224 27
802 224 32
803 224 37
804 224 43
805 224 45
806 224 58
807 224 64
808 224 74
809 224 83
810 224 88
811 224 97
812 225 132
813 225 20
814 225 28
815 225 33
816 225 62
817 225 68
818 225 94
819 225 96
820 231 0
821 232 103
822 232 106
823 232 108
824 232 110
825 232 113
826 232 119
827 232 120
828 232 121
829 232 122
830 232 125
831 232 132
832 232 14
833 232 18
834 232 45
835 232 47
836 232 50
837 232 51
838 232 55
839 232 56
840 232 59
841 232 60
842 232 61
843 232 66
844 232 68
845 232 70
846 232 72
847 232 74
848 232 76
849 232 78
850 233 53
851 235 100
852 235 103
853 235 106
854 235 108
855 235 11
856 235 110
857 235 31
858 235 35
859 235 39
860 235 6
861 235 71
862 235 74
863 235 82
864 235 87
865 235 9
866 235 91
867 235 96
868 239 100
869 239 112
870 239 32
871 239 35
872 239 39
873 239 72
874 239 84
875 239 87
876 239 91
877 239 93
878 239 96
879 240 102
880 240 105
881 240 17
882 240 33
883 240 37
884 240 70
885 240 72
886 240 85
887 240 89
888 240 94
889 240 98
890 241 102
891 241 105
892 241 17
893 241 41
894 241 5
895 241 70
896 241 72
897 241 8
898 241 80
899 242 0
900 242 28
901 245 103
902 245 106
903 245 108
904 245 11
905 245 110
906 245 31
907 245 34
908 245 38
909 245 6
910 245 71
911 245 86
912 245 9
913 245 90
914 245 95
915 245 99
916 247 113
917 247 122
918 247 125
919 247 14
920 247 50
921 247 56
922 247 59
923 247 66
924 247 68
925 247 76
926 247 78
927 248 119
928 248 121
929 248 132
930 248 54
931 248 60
932 250 0
933 250 140
934 251 0
935 251 140
936 252 0
937 253 0
938 255 101
939 255 103
940 255 105
941 255 131
942 255 133
943 255 44
944 255 48
945 255 49
946 255 52
947 255 53
948 255 56
949 255 62
950 255 64
951 255 65
952 255 75
953 255 87
954 255 89
955 255 91
956 255 97
957 255 99
958 258 101
959 258 103
960 258 105
961 258 107
962 258 11
963 258 111
964 258 117
965 258 123
966 258 6
967 258 69
968 258 88
969 258 9
970 258 91
971 258 93
972 258 95
973 258 98
974 262 108
975 262 89
976 262 99
977 263 102
978 263 108
979 263 72
980 263 87
981 263 89
982 263 97
983 263 99
984 264 102
985 264 108
986 264 127
987 264 42
988 264 47
989 264 5
990 264 67
991 264 72
992 264 8
993 264 87
994 264 89
995 264 92
996 264 97
997 264 99
998 265 108
999 268 103
1000 268 105
1001 268 107
1002 268 11
1003 268 111
1004 268 117
1005 268 123
1006 268 6
1007 268 88
1008 268 9
1009 268 93
1010 268 95
1011 268 98
1012 270 0
1013 270 44
1014 270 48
1015 270 49
1016 270 53
1017 270 58
1018 270 63
1019 271 109
1020 271 111
1021 271 113
1022 271 115
1023 271 117
1024 271 119
1025 271 121
1026 271 122
1027 271 124
1028 271 125
1029 271 51
1030 271 57
1031 271 64
1032 278 10
1033 278 101
1034 278 103
1035 278 106
1036 278 108
1037 278 110
1038 278 112
1039 278 115
1040 278 12
1041 278 121
1042 278 17
1043 278 21
1044 278 22
1045 278 28
1046 278 30
1047 278 32
1048 278 34
1049 278 70
1050 278 74
1051 278 84
1052 278 86
1053 278 89
1054 278 91
1055 278 94
1056 278 96
1057 278 99
1058 281 101
1059 281 103
1060 281 107
1061 281 11
1062 281 111
1063 281 115
1064 281 126
1065 281 129
1066 281 13
1067 281 133
1068 281 16
1069 281 18
1070 281 27
1071 281 29
1072 281 32
1073 281 38
1074 281 43
1075 281 51
1076 281 55
1077 281 60
1078 281 64
1079 281 66
1080 281 71
1081 281 75
1082 281 79
1083 281 8
1084 281 90
1085 281 95
1086 281 99
1087 284 52
1088 285 105
1089 285 30
1090 285 88
1091 285 93
1092 286 10
1093 286 100
1094 286 105
1095 286 12
1096 286 17
1097 286 28
1098 286 30
1099 286 70
1100 286 74
1101 286 88
1102 286 93
1103 287 10
1104 287 100
1105 287 105
1106 287 12
1107 287 124
1108 287 127
1109 287 14
1110 287 17
1111 287 28
1112 287 30
1113 287 36
1114 287 63
1115 287 70
1116 287 74
1117 287 80
1118 287 88
1119 287 93
1120 288 24
1121 288 39
1122 288 5
1123 288 76
1124 291 101
1125 291 103
1126 291 11
1127 291 13
1128 291 18
1129 291 27
1130 291 29
1131 291 55
1132 291 60
1133 291 64
1134 291 66
1135 291 71
1136 291 75
1137 291 79
1138 291 8
1139 293 22
1140 293 34
1141 294 121
1142 301 10
1143 301 11
1144 301 124
1145 301 125
1146 301 126
1147 301 127
1148 301 16
1149 301 17
1150 301 20
1151 301 21
1152 301 24
1153 301 30
1154 301 32
1155 301 33
1156 301 35
1157 301 39
1158 301 42
1159 301 43
1160 301 46
1161 301 47
1162 301 50
1163 301 56
1164 301 58
1165 301 59
1166 301 6
1167 301 61
1168 301 62
1169 301 68
1170 301 70
1171 301 73
1172 301 75
1173 301 76
1174 301 79
1175 301 91
1176 301 97
1177 304 102
1178 304 108
1179 304 114
1180 304 120
1181 304 131
1182 304 135
1183 304 38
1184 304 40
1185 304 77
1186 304 91
1187 304 97
1188 307 73
1189 307 87
1190 307 93
1191 308 105
1192 308 35
1193 308 73
1194 308 87
1195 308 93
1196 309 0
1197 309 105
1198 309 35
1199 309 39
1200 309 74
1201 309 76
1202 309 78
1203 309 87
1204 309 93
1205 309 96
1206 310 105
1207 310 129
1208 310 15
1209 310 35
1210 310 39
1211 310 41
1212 310 64
1213 310 73
1214 310 76
1215 310 78
1216 310 87
1217 310 94
1218 310 96
1219 311 105
1220 311 35
1221 311 87
1222 311 99
1223 314 102
1224 314 108
1225 314 114
1226 314 120
1227 314 38
1228 314 40
1229 314 75
1230 314 77
1231 314 97
1232 315 79
1233 316 11
1234 316 125
1235 316 126
1236 316 127
1237 316 16
1238 316 17
1239 316 21
1240 316 26
1241 316 31
1242 316 42
1243 316 43
1244 316 47
1245 316 52
1246 316 57
1247 316 6
1248 316 62
1249 317 106
1250 317 108
1251 317 110
1252 317 112
1253 317 114
1254 317 116
1255 317 118
1256 317 119
1257 317 121
1258 317 122
1259 317 19
1260 317 25
1261 317 32
1262 317 36
1263 317 37
1264 317 45
1265 317 51
1266 317 58
1267 317 88
1268 317 89
1269 317 91
1270 317 93
1271 324 0
1272 324 10
1273 324 100
1274 324 102
1275 324 105
1276 324 107
1277 324 108
1278 324 110
1279 324 111
1280 324 114
1281 324 115
1282 324 123
1283 324 125
1284 324 140
1285 324 17
1286 324 23
1287 324 35
1288 324 36
1289 324 42
1290 324 43
1291 324 46
1292 324 47
1293 324 50
1294 324 56
1295 324 58
1296 324 59
1297 324 61
1298 324 62
1299 324 68
1300 324 71
1301 324 74
1302 324 76
1303 324 78
1304 324 80
1305 324 85
1306 324 88
1307 324 90
1308 324 92
1309 324 94
1310 324 97
1311 325 0
1312 327 102
1313 327 107
1314 327 110
1315 327 112
1316 327 120
1317 327 124
1318 327 126
1319 327 129
1320 327 133
1321 327 15
1322 327 18
1323 327 20
1324 327 40
1325 327 65
1326 327 71
1327 327 74
1328 327 77
1329 327 80
1330 327 84
1331 327 86
1332 327 88
1333 327 90
1334 327 94
1335 327 97
1336 331 100
1337 331 105
1338 331 108
1339 331 78
1340 331 92
1341 332 100
1342 332 105
1343 332 108
1344 332 111
1345 332 123
1346 332 125
1347 332 17
1348 332 70
1349 332 73
1350 332 76
1351 332 78
1352 332 85
1353 332 87
1354 332 92
1355 332 96
1356 333 100
1357 333 105
1358 333 108
1359 333 111
1360 333 123
1361 333 125
1362 333 127
1363 333 13
1364 333 17
1365 333 19
1366 333 29
1367 333 38
1368 333 41
1369 333 64
1370 333 70
1371 333 73
1372 333 76
1373 333 78
1374 333 85
1375 333 87
1376 333 92
1377 333 96
1378 334 117
1379 334 81
1380 337 112
1381 337 120
1382 337 124
1383 337 126
1384 337 18
1385 337 20
1386 337 65
1387 337 71
1388 337 74
1389 337 77
1390 337 84
1391 337 86
1392 337 88
1393 337 90
1394 337 97
1395 339 115
1396 339 23
1397 339 36
1398 339 42
1399 339 43
1400 339 47
1401 339 52
1402 339 57
1403 339 62
1404 339 68
1405 340 10
1406 340 45
1407 340 51
1408 340 58
1409 349 102
1410 349 106
1411 349 110
1412 349 114
1413 349 13
1414 349 17
1415 349 21
1416 349 25
1417 349 29
1418 349 33
1419 349 37
1420 349 40
1421 349 44
1422 349 48
1423 349 5
1424 349 52
1425 349 56
1426 349 60
1427 349 64
1428 349 68
1429 349 72
1430 349 76
1431 349 80
1432 349 86
1433 349 9
1434 349 90
1435 349 94
1436 349 98
EOF
